CMD:
./solvers/bin/cadical --plain --no-reduce -t 1600 ./data/cnfs//vis_arrays_am2910_p3/vis_arrays_am2910_p3.11.cnf

c --- [ banner ] -------------------------------------------------------------
c 
c CaDiCaL SAT Solver
c Copyright (c) 2016-2024
c A. Biere, M. Fleury, N. Froleyks, K. Fazekas, F. Pollitt, T. Faller
c JKU Linz, University of Freiburg, TU Wien
c 
c Version 2.1.3 5296d3d2a9bf48c154ab2acb5e44625776d821bf
c g++ (Gentoo 12.3.1_p20230526 p2) 12.3.1 20230526 -Wall -Wextra -O3 -DNDEBUG
c Sat Aug 9 07:26:21 PDT 2025 Linux cedar2.int.cedar.computecanada.ca 5.14.0-362.24.2.el9_3.x86_64 x86_64
c 
c --- [ limit ] --------------------------------------------------------------
c 
c setting time limit to 1600 seconds real time (due to '-t 1600')
c 
c --- [ parsing input ] ------------------------------------------------------
c 
c reading DIMACS file from './data/cnfs//vis_arrays_am2910_p3/vis_arrays_am2910_p3.11.cnf'
c opening file to read './data/cnfs//vis_arrays_am2910_p3/vis_arrays_am2910_p3.11.cnf'
c found 'p cnf 12513 34960' header
c parsed 34960 clauses in 0.01 seconds process time
c 
c --- [ options ] ------------------------------------------------------------
c 
c   --compact=false                (different from default 'true')
c   --decompose=false              (different from default 'true')
c   --deduplicate=false            (different from default 'true')
c   --elim=false                   (different from default 'true')
c   --probe=false                  (different from default 'true')
c   --reduce=false                 (different from default 'true')
c   --subsume=false                (different from default 'true')
c   --ternary=false                (different from default 'true')
c   --transred=false               (different from default 'true')
c   --vivify=false                 (different from default 'true')
c 
c --- [ solving ] ------------------------------------------------------------
c 
c time measured in process time since initialization
c 
c  seconds  reductions  redundant  irredundant
c         MB    restarts       trail      variables
c          level   conflicts       glue        remaining
c 
c *  0.01  9  0 0   0    0    0  0% 0 33893 11711 94%
c {  0.01 10  0 0   0    0    0  0% 0 33893 11711 94%
c i  0.01 10 139 0   0   15    5 23% 1 33893 11277 90%
c i  0.01 10 122 0   0   16    5 22% 1 33893 11221 90%
c i  0.01 10 170 0   0   24   12 24% 1 33893 11209 90%
c i  0.01 10 350 0   2   79   62 50% 1 33893 11184 89%
c i  0.01 10 345 0   2   80   62 49% 1 33893 11163 89%
c i  0.01 10 242 0   2  113   90 45% 1 33893 11144 89%
c i  0.01 10 225 0   2  121   95 44% 1 33893 11126 89%
c }  0.01 10 214 0   2  128  100 43% 1 33893 10501 84%
c 0  0.01 10 214 0   2  128  100 43% 1 33893 10501 84%
c 
c --- [ result ] -------------------------------------------------------------
c 
s UNSATISFIABLE
c 
c --- [ run-time profiling ] -------------------------------------------------
c 
c process time taken by individual solving procedures
c (percentage relative to process time for solving)
c 
c         0.01  163.00% parse
c         0.00   98.19% search
c         0.00   67.35% unstable
c         0.00   30.44% lucky
c         0.00    0.00% simplify
c   =================================
c         0.00   36.83% solve
c 
c last line shows process time for solving
c (percentage relative to total process time)
c 
c --- [ statistics ] ---------------------------------------------------------
c 
c chronological:                62        48.44 %  of conflicts
c conflicts:                   128     39239.73    per second
c decisions:                   941    288473.33    per second
c fixed:                      1947        15.56 %  of all variables
c learned:                     115        89.84 %  per conflict
c learned_lits:                422       100.00 %  learned literals
c minimized:                     0         0.00 %  learned literals
c shrunken:                     42         9.95 %  learned literals
c minishrunken:                 34         8.06 %  learned literals
c otfs:                          6         4.69 %  of conflict
c propagations:              43394        13.30 M  per second
c restarts:                      2        64.00    interval
c subsumed:                      7         0.02 %  of all clauses
c strengthened:                  6         0.02 %  of all clauses
c 
c seconds are measured in process time for solving
c 
c --- [ resources ] ----------------------------------------------------------
c 
c total process time since initialization:         0.01    seconds
c total real time since initialization:            0.01    seconds
c maximum resident set size of process:           29.24    MB
c 
c --- [ shutting down ] ------------------------------------------------------
c 
c exit 20
